* ENCODING=ISO-8859-1
NAME          CPLEX
ROWS
 N  obj1    
 G  c1      
 G  c2      
 G  c3      
 G  c4      
 G  c5      
 G  c6      
 G  c7      
 G  c8      
 G  c9      
 G  c10     
 G  c11     
 G  c12     
 G  c13     
 G  c14     
 G  c15     
 G  c16     
 G  c17     
 G  c18     
 G  c19     
 G  c20     
 G  c21     
 G  c22     
 G  c23     
 G  c24     
 G  c25     
 G  c26     
 G  c27     
 G  c28     
 G  c29     
 G  c30     
COLUMNS
    MARK0000  'MARKER'                 'INTORG'
    x1        obj1                            1
    x1        c17                           822
    x1        c26                           497
    x1        c27                           803
    x2        obj1                            1
    x2        c1                            889
    x3        obj1                            1
    x3        c9                            356
    x3        c26                           902
    x4        obj1                            1
    x4        c24                           667
    x5        obj1                            1
    x5        c8                            655
    x5        c10                           488
    x5        c13                           354
    x6        obj1                            1
    x6        c3                            667
    x6        c19                           582
    x6        c25                           990
    x7        obj1                            1
    x7        c3                            997
    x7        c6                            701
    x7        c21                           565
    x7        c24                           113
    x8        obj1                            1
    x8        c12                           910
    x8        c13                           664
    x8        c20                           897
    x9        obj1                            1
    x9        c16                           740
    x10       obj1                            1
    x10       c24                           455
    x11       obj1                            1
    x11       c16                           864
    x12       obj1                            1
    x12       c18                           603
    x12       c21                           162
    x12       c28                           459
    x13       obj1                            1
    x13       c6                            773
    x13       c24                           522
    x14       obj1                            1
    x14       c25                           583
    x15       obj1                            1
    x15       c5                            100
    x15       c17                           384
    x15       c19                           537
    x15       c29                           833
    x16       obj1                            1
    x16       c9                            634
    x17       obj1                            1
    x17       c18                           921
    x17       c21                           959
    x18       obj1                            1
    x19       obj1                            1
    x19       c2                            718
    x19       c11                           407
    x19       c18                           308
    x19       c21                           292
    x19       c24                           937
    x19       c27                           576
    x20       obj1                            1
    x20       c9                            755
    x20       c24                           439
    x20       c26                           539
    x21       obj1                            1
    x21       c6                            684
    x22       obj1                            1
    x22       c1                            362
    x22       c12                           332
    x22       c19                           769
    x23       obj1                            1
    x23       c2                            169
    x23       c11                           624
    x23       c18                           754
    x23       c21                           528
    x24       obj1                            1
    x24       c1                            393
    x24       c6                            493
    x24       c7                            572
    x24       c11                           704
    x24       c16                           735
    x24       c19                           271
    x24       c20                           868
    x24       c23                           323
    x24       c29                           248
    x25       obj1                            1
    x25       c8                            209
    x25       c12                           905
    x25       c18                           322
    x25       c20                           911
    x25       c23                           920
    x26       obj1                            1
    x26       c5                            468
    x26       c6                            232
    x26       c21                           518
    x27       obj1                            1
    x27       c5                            842
    x27       c8                            123
    x27       c11                           351
    x27       c18                           608
    x27       c30                           208
    x28       obj1                            1
    x28       c2                            461
    x28       c12                           933
    x28       c16                           135
    x28       c25                           698
    x29       obj1                            1
    x29       c3                            119
    x29       c14                           601
    x30       obj1                            1
    x30       c20                           384
    x30       c28                           620
    x31       obj1                            1
    x31       c13                           742
    x31       c22                           682
    x32       obj1                            1
    x32       c1                            415
    x32       c2                            105
    x32       c9                            694
    x33       obj1                            1
    x33       c14                           367
    x33       c15                           989
    x33       c18                           586
    x33       c26                           796
    x34       obj1                            1
    x34       c8                            960
    x34       c19                           876
    x35       obj1                            1
    x35       c6                            207
    x35       c17                           129
    x35       c21                           533
    x35       c22                           110
    x35       c27                           813
    x35       c28                           685
    x36       obj1                            1
    x36       c6                            319
    x36       c15                           468
    x36       c22                           488
    x36       c29                           866
    x37       obj1                            1
    x37       c1                            801
    x37       c6                            722
    x37       c17                           698
    x38       obj1                            1
    x38       c2                            169
    x38       c7                            718
    x38       c8                            742
    x38       c17                           780
    x39       obj1                            1
    x39       c4                            181
    x39       c9                            237
    x39       c16                           798
    x39       c25                           232
    x40       obj1                            1
    x40       c3                            669
    x40       c8                            129
    x40       c15                           474
    x40       c19                           485
    x40       c24                           788
    x40       c27                           769
    x41       obj1                            1
    x41       c8                            803
    x41       c16                           627
    x41       c21                           105
    x41       c27                           208
    x42       obj1                            1
    x42       c25                           690
    x43       obj1                            1
    x43       c12                           840
    x44       obj1                            1
    x44       c5                            103
    x44       c10                           567
    x44       c19                           145
    x44       c20                           442
    x44       c27                           955
    x45       obj1                            1
    x45       c18                           132
    x46       obj1                            1
    x47       obj1                            1
    x47       c29                           992
    x48       obj1                            1
    x48       c8                            410
    x48       c12                           223
    x48       c14                           526
    x49       obj1                            1
    x49       c1                            595
    x50       obj1                            1
    x50       c8                            302
    x50       c21                           556
    x50       c23                           451
    x50       c30                           949
    x51       obj1                            1
    x51       c5                            790
    x52       obj1                            1
    x52       c2                            631
    x52       c29                           461
    x52       c30                           966
    x53       obj1                            1
    x53       c2                            152
    x53       c9                            238
    x53       c22                           870
    x53       c25                           715
    x54       obj1                            1
    x54       c15                           581
    x54       c19                           430
    x54       c25                           185
    x55       obj1                            1
    x55       c7                            756
    x55       c9                            726
    x55       c12                           744
    x55       c13                           556
    x56       obj1                            1
    x56       c2                            639
    x56       c4                            294
    x56       c24                           828
    x56       c29                           215
    x57       obj1                            1
    x57       c15                           125
    x58       obj1                            1
    x58       c4                            974
    x58       c13                           164
    x58       c15                           176
    x59       obj1                            1
    x59       c10                           812
    x59       c23                           909
    x59       c24                           949
    x60       obj1                            1
    x60       c1                            346
    x60       c4                            340
    x60       c14                           680
    x60       c23                           765
    MARK0001  'MARKER'                 'INTEND'
RHS
    rhs       c1                           1901
    rhs       c2                           1522
    rhs       c3                           1226
    rhs       c4                            895
    rhs       c5                           1152
    rhs       c6                           2066
    rhs       c7                           1023
    rhs       c8                           2167
    rhs       c9                           1820
    rhs       c10                           934
    rhs       c11                          1043
    rhs       c12                          2444
    rhs       c13                          1240
    rhs       c14                          1087
    rhs       c15                          1407
    rhs       c16                          1950
    rhs       c17                          1407
    rhs       c18                          2117
    rhs       c19                          2048
    rhs       c20                          1751
    rhs       c21                          2109
    rhs       c22                          1075
    rhs       c23                          1684
    rhs       c24                          2849
    rhs       c25                          2047
    rhs       c26                          1367
    rhs       c27                          2062
    rhs       c28                           882
    rhs       c29                          1808
    rhs       c30                          1062
BOUNDS
 LI bnd       x1        0
 LI bnd       x2        0
 LI bnd       x3        0
 LI bnd       x4        0
 LI bnd       x5        0
 LI bnd       x6        0
 LI bnd       x7        0
 LI bnd       x8        0
 LI bnd       x9        0
 LI bnd       x10       0
 LI bnd       x11       0
 LI bnd       x12       0
 LI bnd       x13       0
 LI bnd       x14       0
 LI bnd       x15       0
 LI bnd       x16       0
 LI bnd       x17       0
 LI bnd       x18       0
 LI bnd       x19       0
 LI bnd       x20       0
 LI bnd       x21       0
 LI bnd       x22       0
 LI bnd       x23       0
 LI bnd       x24       0
 LI bnd       x25       0
 LI bnd       x26       0
 LI bnd       x27       0
 LI bnd       x28       0
 LI bnd       x29       0
 LI bnd       x30       0
 LI bnd       x31       0
 LI bnd       x32       0
 LI bnd       x33       0
 LI bnd       x34       0
 LI bnd       x35       0
 LI bnd       x36       0
 LI bnd       x37       0
 LI bnd       x38       0
 LI bnd       x39       0
 LI bnd       x40       0
 LI bnd       x41       0
 LI bnd       x42       0
 LI bnd       x43       0
 LI bnd       x44       0
 LI bnd       x45       0
 LI bnd       x46       0
 LI bnd       x47       0
 LI bnd       x48       0
 LI bnd       x49       0
 LI bnd       x50       0
 LI bnd       x51       0
 LI bnd       x52       0
 LI bnd       x53       0
 LI bnd       x54       0
 LI bnd       x55       0
 LI bnd       x56       0
 LI bnd       x57       0
 LI bnd       x58       0
 LI bnd       x59       0
 LI bnd       x60       0
ENDATA
